# 
# This is the geometry file that corresponds to the current relaxation step.
# If you do not want this file to be written, set the "write_restart_geometry" flag to .false.
#  aims_uuid : C3A2C4B5-580C-4643-A664-D6841F9A2A92                                
# 
lattice_vector     13.12563546     -0.18608887     -0.00089902
lattice_vector     -2.04128058      4.78956479      0.00761021
lattice_vector     -0.00370481     -0.02117027     13.94888709
atom       4.23132454      1.73889538     10.73883700 O
atom       4.67754482      2.64696185     10.63464139 H
atom       4.82322011      1.07967791     11.72278164 C
atom       5.80715218      1.52715235     12.33027321 O
atom       4.21385127     -0.23526680     12.07448587 C
atom       3.01126287     -0.75480464     11.55031587 C
atom       2.18413418     -0.02623893     10.69496291 O
atom       2.50976688      0.06267498      9.35288122 C
atom       3.43882044     -0.53654981      8.85542690 O
atom       1.54435768      0.97006971      8.66256258 C
atom       1.66115992      0.89431351      7.57683285 H
atom       1.73463702      2.00764554      8.97691776 H
atom       0.51137192      0.72816753      8.94682725 H
atom       2.51619157     -1.98802039     11.97261262 C
atom       1.57269020     -2.35289541     11.56487084 H
atom       3.21167572     -2.73446508     12.92120152 C
atom       2.80369148     -3.68637606     13.26137813 H
atom       4.40657729     -2.24330418     13.45242658 C
atom       4.96296309     -2.82791052     14.18569238 H
atom       4.89264170     -1.00931011     13.03449710 C
atom       5.82077824     -0.60668610     13.44203787 H
atom      10.45471230      3.17554656      3.76588392 O
atom      10.00854559      2.26761201      3.65853515 H
atom       9.86317352      3.83134147      4.75218338 C
atom       8.87908427      3.38190466      5.35809088 O
atom      10.47294234      5.14483990      5.10840260 C
atom      11.67607187      5.66516963      4.58615030 C
atom      12.50323801      4.93823009      3.72945994 O
atom      12.17931696      4.85419905      2.38667816 C
atom      11.25151922      5.45604401      1.88997743 O
atom      13.14491513      3.94852818      1.69438160 C
atom      13.02728576      4.02598226      0.60885204 H
atom      12.95613469      2.91022149      2.00725638 H
atom      14.17788837      4.19122144      1.97816176 H
atom      12.17163696      6.89693985      5.01197673 C
atom      13.11576534      7.26264181      4.60602210 H
atom      11.47614460      7.64095359      5.96245918 C
atom      11.88431702      8.59166086      6.30580688 H
atom      10.28076820      7.14892137      6.49195656 C
atom       9.72486479      7.73171427      7.22691135 H
atom       9.79414480      5.91637325      6.07044384 C
atom       8.86567895      5.51326969      6.47669831 H
atom       6.37848334      4.07888987      4.83657219 O
atom       7.32645311      3.79442063      5.04602251 H
atom       6.41804107      5.09753447      3.99092863 C
atom       7.49300308      5.55174714      3.56637973 O
atom       5.10366268      5.64510196      3.55672679 C
atom       3.86031818      5.36256078      4.16186054 C
atom       3.71777762      4.43444697      5.18930691 O
atom       4.20177481      4.75959973      6.45610559 C
atom       4.58574548      5.87373524      6.73802415 O
atom       4.16800494      3.55241266      7.33167655 C
atom       4.27379754      3.85435698      8.37714211 H
atom       5.00003042      2.89436034      7.03431448 H
atom       3.23402708      2.99677244      7.18890124 H
atom       2.68825678      5.94991508      3.69106547 C
atom       1.75008169      5.71464635      4.19378156 H
atom       2.72507203      6.80985587      2.59296844 C
atom       1.80091086      7.27873577      2.24784292 H
atom       3.93799322      7.08241965      1.95497567 C
atom       3.99382928      7.73479884      1.08332450 H
atom       5.10855916      6.51239874      2.44734036 C
atom       6.05835054      6.73436591      1.96278398 H
atom       8.30830958      0.83244820     11.80692076 O
atom       7.36033136      1.11613107     12.01680790 H
atom       8.26877078     -0.18330981     10.95765473 C
atom       7.19389934     -0.63595473     10.53140391 O
atom       9.58329019     -0.72921404     10.52179887 C
atom      10.82659740     -0.44860679     11.12804540 C
atom      10.96898687      0.47585714     12.15882298 O
atom      10.48445013      0.14649656     13.42426299 C
atom      10.10025851     -0.96855417     13.70230896 O
atom      10.51817500      1.35068593     14.30396222 C
atom      10.41133500      1.04523359     15.34830538 H
atom       9.68681966      2.01026461     14.00817463 H
atom      11.45270608      1.90610036     14.16387509 H
atom      11.99885468     -1.03393985     10.65518924 C
atom      12.93693062     -0.80000873     11.15868390 H
atom      11.96228885     -1.89010494      9.55407300 C
atom      12.88665811     -2.35717807      9.20712638 H
atom      10.74934527     -2.16074753      8.91529936 C
atom      10.69364232     -2.81059726      8.04157550 H
atom       9.57871810     -1.59272843      9.40954544 C
atom       8.62896358     -1.81368070      8.92446403 H
