#=======================================================
# FHI-aims file: geometry.in
# Created using the Atomic Simulation Environment (ASE)
# Mon Oct 16 15:36:42 2023
#=======================================================
lattice_vector 4.4523820000000001 0.0000000000000000 0.0000000000000000 
lattice_vector 0.0000000000000000 7.7075699999999996 0.0000000000000000 
lattice_vector 0.0000000000000000 0.0000000000000000 7.2788579999999996 
atom 2.2261910000000000 1.2538983178799998 2.2045841167500000 H
atom 2.2261910000000000 6.4536716821199995 5.8440131167499993 H
atom 2.2261910000000000 0.3100292956800000 3.4968871237859998 H
atom 2.2261910000000000 7.3975407043199990 7.1363161237859991 H
atom 3.0218873181750001 5.9313026867250001 3.7615245640919994 H
atom 1.4304946818249999 5.9313026867250001 3.7615245640919994 H
atom 1.4304946818249999 1.7762673132750000 0.1220955640920000 H
atom 3.0218873181750001 1.7762673132750000 0.1220955640920000 H
atom 0.0000000000000000 5.1076833178800003 2.2045841167500000 H
atom 0.0000000000000000 2.5998866821199997 5.8440131167499993 H
atom 0.0000000000000000 4.1638142956799999 3.4968871237859998 H
atom 0.0000000000000000 3.5437557043200001 7.1363161237859991 H
atom 0.7956963181750000 2.0775176867249998 3.7615245640919994 H
atom 3.6566856818250000 2.0775176867249998 3.7615245640919994 H
atom 3.6566856818250000 5.6300523132749998 0.1220955640920000 H
atom 0.7956963181750000 5.6300523132749998 0.1220955640920000 H
atom 2.2261910000000000 1.2687353901300000 3.2008850843579992 O
atom 2.2261910000000000 6.4388346098699998 6.8403140843579999 O
atom 2.2261910000000000 6.4238279710799997 4.1155318229219997 O
atom 2.2261910000000000 1.2837420289200001 0.4761028229220000 O
atom 0.0000000000000000 5.1225203901300000 3.2008850843579992 O
atom 0.0000000000000000 2.5850496098700000 6.8403140843579999 O
atom 0.0000000000000000 2.5700429710799999 4.1155318229219997 O
atom 0.0000000000000000 5.1375270289200001 0.4761028229220000 O
