#=======================================================
# FHI-aims file: geometry.in
# Created using the Atomic Simulation Environment (ASE)
# Tue Sep 26 17:49:10 2023
#=======================================================
lattice_vector 9.5599729999999994 0.0000000000000000 0.0000000000000000 
lattice_vector 0.0000000000000000 9.0220680000000009 0.0000000000000000 
lattice_vector -1.8457699999999999 0.0000000000000000 10.6339140000000008 
atom 8.1200919999999996 7.6438940000000004 7.0232250000000001 C
atom 8.0058120000000006 7.4365449999999997 8.3998240000000006 C
atom 7.1049639999999998 8.3078109999999992 6.3301330000000000 C
atom 6.8762049999999997 7.8930160000000003 9.0832580000000007 C
atom 5.9754440000000004 8.7642460000000000 7.0137070000000001 C
atom 5.8613010000000001 8.5568190000000008 8.3903330000000000 C
atom 9.0015309999999999 7.2878480000000003 6.4891610000000002 H
atom 8.7978210000000008 6.9183219999999999 8.9412190000000002 H
atom 7.1942690000000002 8.4696700000000007 5.2555480000000001 H
atom 6.7867369999999996 7.7310530000000002 10.1578020000000002 H
atom 5.1833580000000001 9.2823879999999992 6.4723850000000001 H
atom 4.9800389999999997 8.9126049999999992 8.9249130000000001 H
atom -0.4058890000000000 7.6438940000000004 3.6106889999999998 C
atom -0.2916080000000000 7.4365449999999997 2.2340900000000001 C
atom 0.6092390000000000 8.3078109999999992 4.3037809999999999 C
atom 0.8379980000000000 7.8930160000000003 1.5506560000000000 C
atom 1.7387589999999999 8.7642460000000000 3.6202079999999999 C
atom 1.8529020000000000 8.5568190000000008 2.2435800000000001 C
atom -1.2873270000000001 7.2878480000000003 4.1447529999999997 H
atom -1.0836170000000001 6.9183219999999999 1.6926950000000001 H
atom 0.5199340000000000 8.4696700000000007 5.3783649999999996 H
atom 0.9274670000000000 7.7310530000000002 0.4761130000000000 H
atom 2.5308449999999998 9.2823879999999992 4.1615289999999998 H
atom 2.7341639999999998 8.9126049999999992 1.7090000000000001 H
atom 3.3401060000000000 3.1328600000000000 7.0232250000000001 C
atom 3.2258249999999999 2.9255100000000001 8.3998240000000006 C
atom 2.3249789999999999 3.7967759999999999 6.3301330000000000 C
atom 2.0962190000000001 3.3819830000000000 9.0832580000000007 C
atom 1.1954579999999999 4.2532110000000003 7.0137070000000001 C
atom 1.0813150000000000 4.0457850000000004 8.3903330000000000 C
atom 4.2215439999999997 2.7768139999999999 6.4891610000000002 H
atom 4.0178339999999997 2.4072890000000000 8.9412190000000002 H
atom 2.4142830000000002 3.9586359999999998 5.2555480000000001 H
atom 2.0067499999999998 3.2200190000000002 10.1578020000000002 H
atom 0.4033720000000000 4.7713539999999997 6.4723850000000001 H
atom 0.2000520000000000 4.4015709999999997 8.9249130000000001 H
atom 4.3740959999999998 3.1328600000000000 3.6106889999999998 C
atom 4.4883790000000001 2.9255100000000001 2.2340900000000001 C
atom 5.3892249999999997 3.7967759999999999 4.3037809999999999 C
atom 5.6179829999999997 3.3819830000000000 1.5506560000000000 C
atom 6.5187450000000000 4.2532110000000003 3.6202079999999999 C
atom 6.6328889999999996 4.0457850000000004 2.2435800000000001 C
atom 3.4926590000000002 2.7768139999999999 4.1447529999999997 H
atom 3.6963689999999998 2.4072890000000000 1.6926950000000001 H
atom 5.2999210000000003 3.9586359999999998 5.3783649999999996 H
atom 5.7074530000000001 3.2200190000000002 0.4761130000000000 H
atom 7.3108320000000004 4.7713539999999997 4.1615289999999998 H
atom 7.5141510000000000 4.4015709999999997 1.7090000000000001 H
