#=======================================================
# FHI-aims file: geometry.in
# Created using the Atomic Simulation Environment (ASE)
# Wed Nov 16 15:20:53 2022
#=======================================================
lattice_vector 0.0000897800000000 -13.7896904800000009 0.0000428800000000 
lattice_vector -0.1969644600000000 0.0003474000000000 -25.9759238000000003 
lattice_vector 29.7459071600000016 -0.0000037600000000 7.8390627000000004 
atom 3.1326716625533049 -2.1230651699998697 -9.5177927144521508 H
atom 3.1327165200000002 -9.0129104100000017 -9.5177712900000007 H
atom 3.0341894000000007 -2.1178914700000000 -22.5057546299999984 H
atom 3.0342342900000001 -9.0127367100000022 -22.5057331900000008 H
atom 18.0056252100000016 -2.1180670500000001 -5.5982613800000012 H
atom 18.0056700999999997 -9.0129122899999992 -5.5982399400000018 H
atom 17.9071429799999997 -2.1178933500000001 -18.5862232799999987 H
atom 17.9071878700000013 -9.0127385900000014 -18.5862018400000011 H
atom 11.5927378099999991 -5.5655928900000013 -6.0444161999999997 H
atom 11.5927826999999990 -12.4604381300000036 -6.0443947600000003 H
atom 11.4942555799999990 -5.5654191900000027 -19.0323781000000025 H
atom 11.4943004699999989 -12.4602644300000005 -19.0323566600000014 H
atom 26.4656913899999999 -5.5655947700000015 -2.1248848499999990 H
atom 26.4657362799999980 -12.4604400100000010 -2.1248634099999979 H
atom 26.3672091599999980 -5.5654210700000029 -15.1128467500000010 H
atom 26.3672540499999997 -12.4602663099999997 -15.1128253099999998 H
atom 11.6418446099999997 -4.7766082500000016 0.4493836199999994 H
atom 11.6418894999999996 -11.6714534900000029 0.4494050600000001 H
atom 11.5433623799999996 -4.7764345500000021 -12.5385782799999994 H
atom 11.5434072699999994 -11.6712797900000034 -12.5385568399999965 H
atom 26.5147981900000005 -4.7766101300000017 4.3689149700000014 H
atom 26.5148430800000021 -11.6714553700000021 4.3689364100000017 H
atom 26.4163159600000057 -4.7764364300000022 -8.6190469299999997 H
atom 26.4163608500000002 -11.6712816700000026 -8.6190254899999985 H
atom 3.1817784300000000 -1.3290805299999999 -3.0239929099999996 H
atom 3.1818233200000003 -8.2239257700000010 -3.0239714699999998 H
atom 3.0832962000000004 -1.3289068300000000 -16.0119548099999989 H
atom 3.0833410900000002 -8.2237520700000015 -16.0119333699999977 H
atom 18.0547320099999986 -1.3290824100000003 0.8955384400000007 H
atom 18.0547769000000002 -8.2239276500000003 0.8955598800000001 H
atom 17.9562497800000038 -1.3289087100000003 -12.0924234600000027 H
atom 17.9562946699999983 -8.2237539500000008 -12.0924020199999998 H
atom 3.7395059399999995 -2.1933045999999998 -7.8549650299999998 H
atom 3.7395508299999993 -9.0881498400000034 -7.8549435899999986 H
atom 3.6410237099999994 -2.1931308999999999 -20.8429269300000009 H
atom 3.6410685999999992 -9.0879761400000003 -20.8429054899999997 H
atom 18.6124595200000051 -2.1933064799999999 -3.9354336799999987 H
atom 18.6125044099999961 -9.0881517200000044 -3.9354122399999993 H
atom 18.5139772899999997 -2.1931327800000000 -16.9233955800000011 H
atom 18.5140221800000013 -9.0879780200000013 -16.9233741400000000 H
atom 10.9858421600000042 -5.6406219899999996 -7.7072204099999979 H
atom 10.9858870500000023 -12.5354672300000018 -7.7071989699999994 H
atom 10.8873599300000024 -5.6404482899999993 -20.6951823099999999 H
atom 10.8874048200000004 -12.5352935300000023 -20.6951608699999987 H
atom 25.8587957400000086 -5.6406238699999998 -3.7876890599999951 H
atom 25.8588406300000031 -12.5354691100000029 -3.7876676199999983 H
atom 25.7603135100000031 -5.6404501699999994 -16.7756509599999930 H
atom 25.7603584000000048 -12.5352954100000034 -16.7756295199999919 H
atom 11.0350103000000015 -4.7013688200000017 -1.2134440799999993 H
atom 11.0350551900000031 -11.5962140599999994 -1.2134226399999990 H
atom 10.9365280700000032 -4.7011951200000013 -14.2014059800000005 H
atom 10.9365729600000030 -11.5960403600000017 -14.2013845399999994 H
atom 25.9079638800000005 -4.7013707000000018 2.7060872700000012 H
atom 25.9080087700000057 -11.5962159400000022 2.7061087100000023 H
atom 25.8094816500000057 -4.7011970000000014 -10.2818746299999990 H
atom 25.8095265400000002 -11.5960422400000027 -10.2818531899999996 H
atom 3.7886740800000007 -1.2540514300000001 -1.3611886999999998 H
atom 3.7887189699999992 -8.1488966700000027 -1.3611672600000000 H
atom 3.6901918500000002 -1.2538777300000004 -14.3491505999999998 H
atom 3.6902367400000000 -8.1487229699999979 -14.3491291600000004 H
atom 18.6616276600000006 -1.2540533100000000 2.5583426500000006 H
atom 18.6616725500000058 -8.1488985500000002 2.5583640900000013 H
atom 18.5631454300000058 -1.2538796100000003 -10.4296192499999982 H
atom 18.5631903200000004 -8.1487248499999971 -10.4295978100000006 H
atom 7.9107171600000008 -4.2134996100000022 0.0731188900000011 H
atom 7.9107620500000024 -11.1083448500000017 0.0731403300000009 H
atom 7.8122349300000025 -4.2133259100000018 -12.9148430099999967 H
atom 7.8122798200000005 -11.1081711500000022 -12.9148215699999991 H
atom 22.7836707400000016 -4.2135014900000023 3.9926502400000015 H
atom 22.7837156299999997 -11.1083467300000027 3.9926716800000013 H
atom 22.6851885099999997 -4.2133277900000019 -8.9953116599999952 H
atom 22.6852334000000049 -11.1081730300000050 -8.9952902199999976 H
atom 6.9130676499999995 -0.7660570499999998 -2.6475270000000011 H
atom 6.9131125400000002 -7.6609022900000010 -2.6475055600000004 H
atom 6.8145854200000002 -0.7658833500000000 -15.6354889000000021 H
atom 6.8146303100000001 -7.6607285899999997 -15.6354674600000010 H
atom 21.7860212299999993 -0.7660589299999999 1.2720043500000002 H
atom 21.7860661200000010 -7.6609041700000011 1.2720257899999996 H
atom 21.6875390000000010 -0.7658852300000000 -11.7159575500000024 H
atom 21.6875838900000026 -7.6607304699999998 -11.7159361099999995 H
atom 6.8637990799999997 -2.6811738100000002 -9.1415280099999965 H
atom 6.8638439699999996 -9.5760190500000029 -9.1415065699999971 H
atom 6.7653168499999996 -2.6810001099999998 -22.1294899099999967 H
atom 6.7653617399999995 -9.5758453500000034 -22.1294684699999991 H
atom 21.7367526600000041 -2.6811756900000003 -5.2219966599999985 H
atom 21.7367975499999986 -9.5760209300000003 -5.2219752200000000 H
atom 21.6382704299999951 -2.6810019899999999 -18.2099585599999934 H
atom 21.6383153200000002 -9.5758472300000026 -18.2099371199999993 H
atom 7.8614485900000002 -6.1286163699999996 -6.4208821199999981 H
atom 7.8614934800000009 -13.0234616100000018 -6.4208606799999988 H
atom 7.7629663600000001 -6.1284426700000010 -19.4088440200000001 H
atom 7.7630112500000008 -13.0232879100000023 -19.4088225799999989 H
atom 22.7344021700000027 -6.1286182499999979 -2.5013507699999984 H
atom 22.7344470600000008 -13.0234634899999993 -2.5013293299999990 H
atom 22.6359199400000008 -6.1284445499999993 -15.4893126700000003 H
atom 22.6359648300000025 -13.0232897900000015 -15.4892912299999992 H
atom 8.4717081600000004 -6.6071445600000001 -0.4255769999999999 H
atom 8.4717530500000020 -13.5019898000000076 -0.4255555599999996 H
atom 8.3732259300000020 -6.6069708600000014 -13.4135389000000007 H
atom 8.3732708200000019 -13.5018161000000028 -13.4135174600000013 H
atom 23.3446617399999994 -6.6071464400000002 3.4939543500000005 H
atom 23.3447066300000010 -13.5019916800000050 3.4939757899999999 H
atom 23.2461795100000010 -6.6069727400000016 -9.4940075500000010 H
atom 23.2462244000000027 -13.5018179800000020 -9.4939861100000016 H
atom 6.3520523900000017 -3.1597141100000008 -2.1488483000000000 H
atom 6.3520972800000015 -10.0545593499999999 -2.1488268599999998 H
atom 6.2535701600000007 -3.1595404100000009 -15.1368102000000011 H
atom 6.2536150500000005 -10.0543856500000004 -15.1367887600000035 H
atom 21.2250059700000016 -3.1597159900000009 1.7706830500000001 H
atom 21.2250508600000032 -10.0545612299999991 1.7707044900000004 H
atom 21.1265237400000068 -3.1595422900000014 -11.2172788499999996 H
atom 21.1265686300000013 -10.0543875299999996 -11.2172574100000020 H
atom 6.3028080900000001 -0.2875288700000000 -8.6428321199999996 H
atom 6.3028529800000008 -7.1823741100000023 -8.6428106799999966 H
atom 6.2043258600000017 -0.2873551700000001 -21.6307940200000068 H
atom 6.2043707500000007 -7.1822004100000001 -21.6307725800000021 H
atom 21.1757616700000035 -0.2875307500000001 -4.7233007699999989 H
atom 21.1758065600000052 -7.1823759900000006 -4.7232793299999978 H
atom 21.0772794400000016 -0.2873570500000001 -17.7112626700000071 H
atom 21.0773243299999962 -7.1822022900000002 -17.7112412300000024 H
atom 8.4224638499999998 -3.7349593200000002 -6.9195608199999974 H
atom 8.4225087400000014 -10.6298045600000037 -6.9195393799999998 H
atom 8.3239816200000014 -3.7347856200000011 -19.9075227199999993 H
atom 8.3240265100000030 -10.6296308600000042 -19.9075012799999982 H
atom 23.2954174299999970 -3.7349612000000012 -3.0000294699999981 H
atom 23.2954623200000022 -10.6298064400000012 -3.0000080299999996 H
atom 23.1969352000000058 -3.7347875000000013 -15.9879913699999960 H
atom 23.1969800900000003 -10.6296327400000035 -15.9879699300000002 H
atom 6.8768936800000011 -1.5144391400000004 0.1927951900000006 H
atom 6.8769385700000019 -8.4092843800000026 0.1928166300000004 H
atom 6.7784114500000019 -1.5142654400000004 -12.7951667100000002 H
atom 6.7784563400000017 -8.4091106800000031 -12.7951452700000008 H
atom 21.7498472600000028 -1.5144410200000000 4.1123265400000006 H
atom 21.7498921499999973 -8.4092862600000036 4.1123479799999991 H
atom 21.6513650300000009 -1.5142673200000001 -8.8756353600000004 H
atom 21.6514099200000025 -8.4091125600000041 -8.8756139200000010 H
atom 7.9468101799999999 -4.9618774999999999 -2.7672145699999988 H
atom 7.9468550699999998 -11.8567227400000021 -2.7671931299999994 H
atom 7.8483279499999998 -4.9617038000000013 -15.7551764700000003 H
atom 7.8483728400000015 -11.8565490400000009 -15.7551550299999956 H
atom 22.8197637600000007 -4.9618793800000009 1.1523167800000000 H
atom 22.8198086499999988 -11.8567246199999996 1.1523382200000012 H
atom 22.7212815299999988 -4.9617056800000015 -11.8356451200000006 H
atom 22.7213264200000040 -11.8565509200000001 -11.8356236799999959 H
atom 7.8976225700000029 -5.3802342900000015 -9.2612043099999966 H
atom 7.8976674599999992 -12.2750795300000011 -9.2611828700000007 H
atom 7.7991403400000010 -5.3800605900000011 -22.2491662099999985 H
atom 7.7991852299999991 -12.2749058300000016 -22.2491447699999974 H
atom 22.7705761500000072 -5.3802361700000016 -5.3416729599999977 H
atom 22.7706210400000018 -12.2750814099999985 -5.3416515199999974 H
atom 22.6720939200000018 -5.3800624700000013 -18.3296348599999988 H
atom 22.6721388100000034 -12.2749077099999990 -18.3296134199999976 H
atom 6.8277060599999997 -1.9327959300000006 -6.3011945499999991 H
atom 6.8277509500000004 -8.8276411700000015 -6.3011731099999997 H
atom 6.7292238300000013 -1.9326222300000002 -19.2891564500000001 H
atom 6.7292687200000003 -8.8274674700000038 -19.2891350099999990 H
atom 21.7006596400000014 -1.9327978100000001 -2.3816631999999989 H
atom 21.7007045299999994 -8.8276430500000007 -2.3816417599999995 H
atom 21.6021774099999959 -1.9326241100000006 -15.3696251000000021 H
atom 21.6022223000000011 -8.8274693500000012 -15.3696036599999992 H
atom 4.6277939400000001 -0.9487071400000004 -11.6854867500000008 H
atom 4.6278388300000000 -7.8435523800000002 -11.6854653099999997 H
atom 4.5293117100000000 -0.9485334400000004 -24.6734486500000081 H
atom 4.5293566000000007 -7.8433786800000025 -24.6734272099999998 H
atom 19.5007475200000009 -0.9487090200000005 -7.7659554000000011 H
atom 19.5007924100000025 -7.8435542600000021 -7.7659339599999999 H
atom 19.4022652900000026 -0.9485353200000004 -20.7539173000000012 H
atom 19.4023101800000042 -7.8433805600000008 -20.7538958599999965 H
atom 10.0974481699999963 -4.3963335000000008 -3.8768767200000003 H
atom 10.0974930599999979 -11.2911787400000030 -3.8768552799999996 H
atom 9.9989659399999979 -4.3961598000000004 -16.8648386200000004 H
atom 9.9990108299999996 -11.2910050400000035 -16.8648171799999993 H
atom 24.9704017500000006 -4.3963353800000009 0.0426546300000007 H
atom 24.9704466400000022 -11.2911806200000004 0.0426760700000009 H
atom 24.8719195199999987 -4.3961616800000005 -12.9453072700000007 H
atom 24.8719644099999933 -11.2910069200000027 -12.9452858299999978 H
atom 10.1467223000000004 -5.9459662900000012 2.6170776299999998 H
atom 10.1467671900000003 -12.8408115300000016 2.6170990699999996 H
atom 10.0482400700000003 -5.9457925900000026 -10.3708842700000012 H
atom 10.0482849600000019 -12.8406378300000004 -10.3708628300000001 H
atom 25.0196758799999976 -5.9459681700000004 6.5366089799999996 H
atom 25.0197207699999993 -12.8408134100000026 6.5366304199999998 H
atom 24.9211936500000029 -5.9457944700000009 -6.4513529199999979 H
atom 24.9212385399999974 -12.8406397100000049 -6.4513314800000012 H
atom 4.6770680699999998 -2.4983399299999993 -5.1915323899999999 H
atom 4.6771129600000005 -9.3931851700000006 -5.1915109500000005 H
atom 4.5785858400000006 -2.4981662299999998 -18.1794942900000009 H
atom 4.5786307300000004 -9.3930114700000011 -18.1794728500000069 H
atom 19.5500216500000015 -2.4983418099999999 -1.2720010399999997 H
atom 19.5500665399999995 -9.3931870499999981 -1.2719796000000003 H
atom 19.4515394199999996 -2.4981681099999999 -14.2599629399999994 H
atom 19.4515843100000012 -9.3930133500000004 -14.2599415000000018 H
atom 14.4813277199999995 -1.4466149399999999 -4.7698132099999979 H
atom 14.4813726099999993 -8.3414601800000003 -4.7697917699999985 H
atom 14.3828454899999993 -1.4464412400000002 -17.7577751100000008 H
atom 14.3828903799999992 -8.3412864799999991 -17.7577536699999996 H
atom 29.3542813000000002 -1.4466168200000002 -0.8502818599999978 H
atom 29.3543261900000019 -8.3414620599999996 -0.8502604199999985 H
atom 29.2557990700000019 -1.4464431200000005 -13.8382437599999992 H
atom 29.2558439600000000 -8.3412883599999983 -13.8382223199999981 H
atom 0.2440056600000000 -4.8940609899999998 -10.7926091699999986 H
atom 0.2440505500000000 -11.7889062300000003 -10.7925877299999993 H
atom 0.1455234300000000 -4.8938872900000012 -23.7805710699999970 H
atom 0.1455683200000000 -11.7887325300000008 -23.7805496299999994 H
atom 15.1169592400000017 -4.8940628700000000 -6.8730778199999989 H
atom 15.1170041300000051 -11.7889081100000030 -6.8730563799999986 H
atom 15.0184770100000016 -4.8938891700000013 -19.8610397199999973 H
atom 15.0185219000000014 -11.7887344100000035 -19.8610182799999997 H
atom 0.2931885200000000 -5.4480584900000029 -4.2985959100000004 H
atom 0.2932334100000000 -12.3429037300000033 -4.2985744700000001 H
atom 0.1947062900000000 -5.4478847900000034 -17.2865578100000015 H
atom 0.1947511800000000 -12.3427300300000002 -17.2865363700000003 H
atom 15.1661421000000001 -5.4480603700000012 -0.3790645600000009 H
atom 15.1661869899999999 -12.3429056100000007 -0.3790431199999997 H
atom 15.0676598700000035 -5.4478866700000017 -13.3670264600000017 H
atom 15.0677047599999998 -12.3427319099999995 -13.3670050200000006 H
atom 14.5305105799999996 -2.0006124299999999 1.7242000700000000 H
atom 14.5305554699999977 -8.8954576700000008 1.7242215100000000 H
atom 14.4320283499999995 -2.0004387300000004 -11.2637618300000000 H
atom 14.4320732399999994 -8.8952839700000030 -11.2637403899999988 H
atom 29.4034641600000022 -2.0006143100000005 5.6437314200000017 H
atom 29.4035090500000074 -8.8954595500000035 5.6437528600000020 H
atom 29.3049819300000074 -2.0004406100000005 -7.3442304800000011 H
atom 29.3050268200000019 -8.8952858500000040 -7.3442090399999991 H
atom 0.6406892199999999 -2.1026494300000000 -9.9877614999999995 H
atom 0.6407341099999999 -8.9974946700000036 -9.9877400600000019 H
atom 0.5422069899999999 -2.1024757300000005 -22.9757234000000032 H
atom 0.5422518800000000 -8.9973209700000041 -22.9757019600000021 H
atom 15.5136428000000013 -2.1026513100000006 -6.0682301499999989 H
atom 15.5136876900000011 -8.9974965500000028 -6.0682087099999995 H
atom 15.4151605700000012 -2.1024776100000007 -19.0561920500000035 H
atom 15.4152054600000046 -8.9973228500000015 -19.0561706100000023 H
atom 14.0846887899999995 -5.5499880000000017 -5.5745319899999997 H
atom 14.0847336799999994 -12.4448332399999995 -5.5745105500000003 H
atom 13.9862065599999994 -5.5498143000000013 -18.5624938900000025 H
atom 13.9862514499999993 -12.4446595400000000 -18.5624724500000013 H
atom 28.9576423700000021 -5.5499898800000018 -1.6550006399999992 H
atom 28.9576872600000037 -12.4448351200000005 -1.6549791999999990 H
atom 28.8591601400000002 -5.5498161800000014 -14.6429625400000027 H
atom 28.8592050300000018 -12.4446614200000027 -14.6429410999999998 H
atom 14.1338270200000000 -4.7920240000000032 0.9193523899999999 H
atom 14.1338719100000016 -11.6868692400000000 0.9193738300000011 H
atom 14.0353447900000017 -4.7918503000000010 -12.0686095099999999 H
atom 14.0353896800000015 -11.6866955399999988 -12.0685880700000006 H
atom 29.0067805999999955 -4.7920258800000033 4.8388837400000000 H
atom 29.0068254900000007 -11.6868711200000028 4.8389051800000011 H
atom 28.9082983700000042 -4.7918521800000020 -8.1490781599999984 H
atom 28.9083432599999988 -11.6866974199999998 -8.1490567200000008 H
atom 0.6898274499999999 -1.3446854200000002 -3.4938771199999996 H
atom 0.6898723400000000 -8.2395306599999998 -3.4938556799999998 H
atom 0.5913452200000001 -1.3445117200000003 -16.4818390199999989 H
atom 0.5913901100000000 -8.2393569600000021 -16.4818175799999942 H
atom 15.5627810300000036 -1.3446873000000001 0.4256542300000016 H
atom 15.5628259199999963 -8.2395325399999990 0.4256756699999993 H
atom 15.4642987999999999 -1.3445136000000004 -12.5623076699999991 H
atom 15.4643436899999998 -8.2393588399999995 -12.5622862299999980 H
atom 1.0172399500000000 -0.5156929500000000 -9.2677093999999993 H
atom 1.0172848400000001 -7.4105381900000014 -9.2676879599999999 H
atom 0.9187577200000000 -0.5155192500000002 -22.2556712999999995 H
atom 0.9188026100000000 -7.4103644900000019 -22.2556498599999983 H
atom 15.8901935299999995 -0.5156948300000000 -5.3481780499999996 H
atom 15.8902384200000029 -7.4105400700000024 -5.3481566099999993 H
atom 15.7917112999999993 -0.5155211300000002 -18.3361399499999997 H
atom 15.7917561900000010 -7.4103663700000011 -18.3361185099999986 H
atom 13.7080826099999999 -3.9630895700000015 -6.2948279699999992 H
atom 13.7081274999999998 -10.8579348100000050 -6.2948065299999998 H
atom 13.6096003799999998 -3.9629158700000007 -19.2827898699999984 H
atom 13.6096452700000015 -10.8577611100000055 -19.2827684300000008 H
atom 28.5810361899999990 -3.9630914500000016 -2.3752966199999994 H
atom 28.5810810800000041 -10.8579366900000043 -2.3752751799999992 H
atom 28.4825539600000006 -3.9629177500000008 -15.3632585200000005 H
atom 28.4825988499999951 -10.8577629900000048 -15.3632370800000064 H
atom 13.7572762900000001 -6.3789804800000018 0.1993002800000011 H
atom 13.7573211799999999 -13.2738257200000049 0.1993217200000005 H
atom 13.6587940600000000 -6.3788067800000015 -12.7886616200000027 H
atom 13.6588389500000016 -13.2736520200000054 -12.7886401800000016 H
atom 28.6302298700000044 -6.3789823600000020 4.1188316300000007 H
atom 28.6302747600000025 -13.2738276000000024 4.1188530700000028 H
atom 28.5317476399999990 -6.3788086600000016 -8.8691302700000030 H
atom 28.5317925300000041 -13.2736539000000047 -8.8691088299999965 H
atom 1.0664336299999999 -2.9315838600000008 -2.7735811400000001 H
atom 1.0664785200000000 -9.8264291000000021 -2.7735597000000003 H
atom 0.9679513999999999 -2.9314101600000013 -15.7615430400000012 H
atom 0.9679962900000002 -9.8262554000000026 -15.7615216000000000 H
atom 15.9393872100000014 -2.9315857400000005 1.1459502100000005 H
atom 15.9394320999999977 -9.8264309799999996 1.1459716499999995 H
atom 15.8409049800000012 -2.9314120400000006 -11.8420116899999996 H
atom 15.8409498700000047 -9.8262572800000019 -11.8419902499999985 H
atom 0.5028551899999998 -1.3175676100000004 -6.2989791100000003 H
atom 0.5029000799999999 -8.2124128500000051 -6.2989576700000010 H
atom 0.4043729599999999 -1.3173939100000005 -19.2869410100000067 H
atom 0.4044178499999999 -8.2122391500000038 -19.2869195700000020 H
atom 15.3758087700000061 -1.3175694900000003 -2.3794477599999988 H
atom 15.3758536600000024 -8.2124147300000043 -2.3794263200000003 H
atom 15.2773265400000025 -1.3173957900000004 -15.3674096600000016 H
atom 15.2773714299999988 -8.2122410300000031 -15.3673882200000005 H
atom 14.2224188900000001 -4.7651034900000004 -9.2634105600000005 H
atom 14.2224637800000000 -11.6599487300000053 -9.2633891199999994 H
atom 14.3209011200000003 -4.7652771900000017 3.7245513400000032 H
atom 14.3209460100000001 -11.6601224300000030 3.7245727800000021 H
atom 29.0953724700000009 -4.7651053700000006 -5.3438792099999999 H
atom 29.0954173600000026 -11.6599506100000028 -5.3438577699999987 H
atom 29.1938547000000028 -4.7652790700000018 7.6440826900000047 H
atom 29.1938995900000009 -11.6601243100000023 7.6441041300000050 H
atom 14.2716610500000041 -5.5771058199999999 -2.7694299999999981 H
atom 14.2717059400000039 -12.4719510600000021 -2.7694085599999987 H
atom 14.1731788200000040 -5.5769321200000013 -15.7573918999999982 H
atom 14.1732237100000020 -12.4717773600000026 -15.7573704599999971 H
atom 29.1446146300000031 -5.5771077000000000 1.1501013500000026 H
atom 29.1446595200000047 -12.4719529399999995 1.1501227900000011 H
atom 29.0461324000000012 -5.5769340000000014 -11.8378605499999985 H
atom 29.0461772900000028 -12.4717792400000018 -11.8378391099999973 H
atom 0.3551328900000000 -2.1292225300000003 -25.7809223500000009 H
atom 0.3551777800000001 -9.0240677700000020 -25.7809009099999997 H
atom 0.4536151200000001 -2.1293962300000002 -12.7929604500000007 H
atom 0.4536600100000001 -9.0242414700000015 -12.7929390100000031 H
atom 15.2280864700000009 -2.1292244100000008 -21.8613910000000011 H
atom 15.2281313600000008 -9.0240696500000013 -21.8613695600000000 H
atom 15.3265687000000010 -2.1293981100000003 -8.8734291000000010 H
atom 15.3266135900000045 -9.0242433499999990 -8.8734076599999998 H
atom 1.9561272400000007 -0.4253779000000001 -6.8437683099999997 H
atom 1.9561721300000003 -7.3202231400000004 -6.8437468699999995 H
atom 1.8576450100000008 -0.4252042000000000 -19.8317302099999964 H
atom 1.8576899000000007 -7.3200494400000027 -19.8317087700000023 H
atom 16.8290808200000050 -0.4253797800000001 -2.9242369599999987 H
atom 16.8291257099999960 -7.3202250200000005 -2.9242155200000002 H
atom 16.7305985899999961 -0.4252060800000001 -15.9121988599999984 H
atom 16.7306434800000048 -7.3200513200000010 -15.9121774199999990 H
atom 12.7690599900000006 -3.8729632600000006 -8.7187544300000024 H
atom 12.7691048800000004 -10.7678085000000010 -8.7187329900000012 H
atom 12.6705777600000005 -3.8727895600000015 -21.7067163299999990 H
atom 12.6706226500000003 -10.7676348000000033 -21.7066948900000014 H
atom 27.6420135700000031 -3.8729651400000003 -4.7992230800000009 H
atom 27.6420584600000012 -10.7678103800000038 -4.7992016399999979 H
atom 27.5435313400000013 -3.8727914400000003 -17.7871849799999993 H
atom 27.5435762299999993 -10.7676366800000043 -17.7871635400000017 H
atom 12.8183889999999998 -6.4692955200000020 -2.2246408000000013 H
atom 12.8184338900000014 -13.3641407600000051 -2.2246193600000006 H
atom 12.7199067700000015 -6.4691218200000007 -15.2126026999999997 H
atom 12.7199516600000013 -13.3639670600000038 -15.2125812600000021 H
atom 27.6913425800000006 -6.4692974000000021 1.6948905499999996 H
atom 27.6913874700000022 -13.3641426400000043 1.6949119899999998 H
atom 27.5928603500000023 -6.4691237000000008 -11.2930713499999982 H
atom 27.5929052400000003 -13.3639689400000030 -11.2930499100000006 H
atom 2.0054562500000008 -3.0217101600000009 -0.3496546699999997 H
atom 2.0055011400000002 -9.9165554000000000 -0.3496332299999999 H
atom 1.9069740200000003 -3.0215364600000001 -13.3376165699999998 H
atom 1.9070189099999999 -9.9163817000000005 -13.3375951300000004 H
atom 16.8784098299999989 -3.0217120400000015 3.5698766799999997 H
atom 16.8784547200000006 -9.9165572799999975 3.5698981200000000 H
atom 16.7799276000000006 -3.0215383400000002 -9.4180852200000000 H
atom 16.7799724900000022 -9.9163835799999998 -9.4180637800000024 H
atom 2.1263392300000010 -1.9561708500000001 -5.9330846099999999 H
atom 2.1263841200000004 -8.8510160899999999 -5.9330631699999996 H
atom 2.0278570000000005 -1.9559971500000006 -18.9210465100000000 H
atom 2.0279018900000008 -8.8508423899999986 -18.9210250700000024 H
atom 16.9992928100000000 -1.9561727300000000 -2.0135532599999979 H
atom 16.9993377000000052 -8.8510179700000027 -2.0135318199999985 H
atom 16.9008105800000052 -1.9559990300000005 -15.0015151599999967 H
atom 16.9008554699999998 -8.8508442699999996 -15.0014937200000009 H
atom 12.5990002600000004 -5.4038384600000002 -9.6292197000000002 H
atom 12.5990451500000002 -12.2986837000000033 -9.6291982600000008 H
atom 12.5005180299999985 -5.4036647600000007 -22.6171816000000021 H
atom 12.5005629200000001 -12.2985100000000038 -22.6171601600000010 H
atom 27.4719538400000047 -5.4038403400000004 -5.7096883499999995 H
atom 27.4719987300000028 -12.2986855800000008 -5.7096669100000010 H
atom 27.3734716100000028 -5.4036666400000009 -18.6976502500000024 H
atom 27.3735165000000009 -12.2985118800000031 -18.6976288100000012 H
atom 12.6481770100000031 -4.9385025700000016 -3.1353244999999985 H
atom 12.6482219000000011 -11.8333478100000029 -3.1353030599999987 H
atom 12.5496947800000012 -4.9383288700000012 -16.1232863999999978 H
atom 12.5497396700000010 -11.8331741100000034 -16.1232649599999966 H
atom 27.5211305900000056 -4.9385044500000017 0.7842068500000022 H
atom 27.5211754800000001 -11.8333496900000004 0.7842282900000026 H
atom 27.4226483600000002 -4.9383307500000013 -12.2037550499999981 H
atom 27.4226932500000018 -11.8331759900000026 -12.2037336099999969 H
atom 2.1755159799999992 -1.4908349599999999 0.5608105900000000 H
atom 2.1755608700000000 -8.3856802000000030 0.5608320300000000 H
atom 2.0770337500000000 -1.4906612600000000 -12.4271513100000011 H
atom 2.0770786399999999 -8.3855065000000000 -12.4271298699999999 H
atom 17.0484695600000009 -1.4908368400000003 4.4803419400000015 H
atom 17.0485144500000061 -8.3856820800000005 4.4803633800000009 H
atom 16.9499873300000026 -1.4906631400000003 -8.5076199599999995 H
atom 16.9500322200000006 -8.3855083799999992 -8.5075985199999984 H
atom 0.6421924600000000 -1.5260797500000001 -9.0529468499999997 C
atom 0.6422373499999999 -8.4209249900000014 -9.0529254099999985 C
atom 0.5437102300000000 -1.5259060500000003 -22.0409087499999998 C
atom 0.5437551199999999 -8.4207512900000019 -22.0408873100000058 C
atom 15.5151460400000030 -1.5260816300000004 -5.1334154999999990 C
atom 15.5151909300000028 -8.4209268699999988 -5.1333940599999979 C
atom 15.4166638100000029 -1.5259079300000007 -18.1213773999999965 C
atom 15.4167087000000027 -8.4207531700000011 -18.1213559599999989 C
atom 14.0831533200000028 -4.9734959900000009 -6.5094381299999986 C
atom 14.0831982099999991 -11.8683412300000004 -6.5094166900000001 C
atom 13.9846710900000009 -4.9733222900000005 -19.4974000299999979 C
atom 13.9847159800000007 -11.8681675300000009 -19.4973785899999932 C
atom 28.9561069000000018 -4.9734978700000019 -2.5899067799999993 C
atom 28.9561517900000034 -11.8683431100000032 -2.5898853399999990 C
atom 28.8576246699999999 -4.9733241700000006 -15.5778686799999999 C
atom 28.8576695600000015 -11.8681694100000037 -15.5778472399999988 C
atom 14.1323237800000001 -5.3685936700000001 -0.0154622699999999 C
atom 14.1323686700000017 -12.2634389100000050 -0.0154408299999992 C
atom 14.0338415500000018 -5.3684199699999997 -13.0034241700000006 C
atom 14.0338864400000016 -12.2632652100000055 -13.0034027299999995 C
atom 29.0052773600000009 -5.3685955500000002 3.9040690800000015 C
atom 29.0053222500000025 -12.2634407900000042 3.9040905200000000 C
atom 28.9067951300000026 -5.3684218499999998 -9.0838928199999991 C
atom 28.9068400200000006 -12.2632670900000047 -9.0838713799999944 C
atom 0.6913629200000000 -1.9211774300000002 -2.5589709799999998 C
atom 0.6914078100000002 -8.8160226699999988 -2.5589495399999995 C
atom 0.5928806900000002 -1.9210037300000007 -15.5469328800000000 C
atom 0.5929255800000002 -8.8158489700000011 -15.5469114399999988 C
atom 15.5643165000000003 -1.9211793100000001 1.3605603700000006 C
atom 15.5643613900000002 -8.8160245499999981 1.3605818100000004 C
atom 15.4658342700000002 -1.9210056100000006 -11.6274015300000002 C
atom 15.4658791600000036 -8.8158508499999986 -11.6273800899999973 C
atom 1.5231586399999999 -2.1756621200000001 -8.0006318800000003 C
atom 1.5232035299999998 -9.0705073600000024 -8.0006104400000009 C
atom 1.4246764099999998 -2.1754884199999998 -20.9885937800000022 C
atom 1.4247212999999999 -9.0703336600000029 -20.9885723400000010 C
atom 16.3961122199999991 -2.1756640000000007 -4.0811005300000005 C
atom 16.3961571100000043 -9.0705092400000034 -4.0810790900000002 C
atom 16.2976299900000008 -2.1754902999999999 -17.0690624300000025 C
atom 16.2976748799999953 -9.0703355400000039 -17.0690409900000013 C
atom 13.2021855200000005 -5.6231357700000002 -7.5616540800000003 C
atom 13.2022304099999985 -12.5179810100000033 -7.5616326400000000 C
atom 13.1037032899999986 -5.6229620699999998 -20.5496159799999987 C
atom 13.1037481800000002 -12.5178073100000038 -20.5495945399999975 C
atom 28.0751391000000048 -5.6231376500000003 -3.6421227299999988 C
atom 28.0751839900000029 -12.5179828900000043 -3.6421012899999985 C
atom 27.9766568699999993 -5.6229639499999999 -16.6300846299999989 C
atom 27.9767017600000081 -12.5178091900000048 -16.6300631899999978 C
atom 13.2513576099999995 -4.7190113100000017 -1.0677772399999998 C
atom 13.2514024999999993 -11.6138565500000031 -1.0677558000000005 C
atom 13.1528753799999993 -4.7188376100000005 -14.0557391400000000 C
atom 13.1529202699999992 -11.6136828500000000 -14.0557177000000024 C
atom 28.1243111900000002 -4.7190131900000019 2.8517541100000008 C
atom 28.1243560799999983 -11.6138584300000023 2.8517755499999993 C
atom 28.0258289599999983 -4.7188394900000015 -10.1362077900000003 C